NAME: binpacking2d-08.bp2d
COMMENT: gcut8
NB_ITEMS: 50
BIN_WIDTH: 500
BIN_HEIGHT: 500

ITEMS [id width height]:
1 277 242
2 233 177
3 182 216
4 147 134
5 213 127
6 315 212
7 261 175
8 210 281
9 243 256
10 159 314
11 217 147
12 260 349
13 222 199
14 296 127
15 263 302
16 226 250
17 264 344
18 237 179
19 245 137
20 137 328
21 321 154
22 200 174
23 270 128
24 299 179
25 165 370
26 198 182
27 155 295
28 278 219
29 184 155
30 187 270
31 208 293
32 261 204
33 344 168
34 213 135
35 362 162
36 362 374
37 237 322
38 281 308
39 155 344
40 210 163
41 325 225
42 360 225
43 346 347
44 131 144
45 284 284
46 262 228
47 146 178
48 254 164
49 332 238
50 313 304